Version identifier: 20.1.0.0 | 2020-11-10 | 9bedb6d68
Tried aggregator 2 times.
MIP Presolve eliminated 2595 rows and 1354 columns.
MIP Presolve modified 6358 coefficients.
Aggregator did 249 substitutions.
Reduced MIP has 3845 rows, 3092 columns, and 12672 nonzeros.
Reduced MIP has 697 binaries, 2395 generals, 0 SOSs, and 0 indicators.
Presolve time = 0.03 sec. (15.83 ticks)
Probing fixed 80 vars, tightened 667 bounds.
Probing time = 0.01 sec. (1.61 ticks)
Tried aggregator 3 times.
Detecting symmetries...
MIP Presolve eliminated 1620 rows and 128 columns.
MIP Presolve modified 349 coefficients.
Aggregator did 38 substitutions.
Reduced MIP has 2187 rows, 2926 columns, and 7298 nonzeros.
Reduced MIP has 901 binaries, 2025 generals, 0 SOSs, and 0 indicators.
Presolve time = 0.02 sec. (12.54 ticks)
Probing fixed 0 vars, tightened 4 bounds.
Probing time = 0.00 sec. (0.69 ticks)
Clique table members: 169.
MIP emphasis: balance optimality and feasibility.
MIP search method: dynamic search.
Parallel mode: deterministic, using up to 24 threads.
Root relaxation solution time = 0.04 sec. (12.12 ticks)

        Nodes                                         Cuts/
   Node  Left     Objective  IInf  Best Integer    Best Bound    ItCnt     Gap

      0     0        0.0000   104                      0.0000      725         
*     0+    0                           43.0000        0.0000           100.00%
      0     0        0.0000   107       43.0000     Cuts: 207      938   97.67%
      0     0        0.0000   103       43.0000     Cuts: 124     1121   97.67%
      0     0        0.0000   125       43.0000      Cuts: 78     1192   97.67%
*     0+    0                           23.0000        1.0000            95.65%
      0     2        0.0000   125       23.0000       19.0000     1192   17.39%
Elapsed time = 1.94 sec. (348.07 ticks, tree = 0.02 MB, solutions = 2)
*   563+  104                           22.0000       19.0000            13.64%
*   691+   89                           21.0000       19.0000             9.52%
    780    53       21.0000    52       21.0000       19.0000   139911    9.52%
*  1067+   18                           20.0000       19.0000             5.00%
*  1144+   35                           19.0000       19.0000             0.00%

Cover cuts applied:  3
Implied bound cuts applied:  302
Flow cuts applied:  8
Mixed integer rounding cuts applied:  33
Zero-half cuts applied:  93
Lift and project cuts applied:  32
Gomory fractional cuts applied:  21

Root node processing (before b&c):
  Real time             =    1.79 sec. (347.18 ticks)
Parallel b&c, 24 threads:
  Real time             =    1.93 sec. (394.25 ticks)
  Sync time (average)   =    1.07 sec.
  Wait time (average)   =    0.00 sec.
                          ------------
Total (root+branch&cut) =    3.72 sec. (741.43 ticks)

Solution status = Optimal
Solution LB = 19
Solution UB = 19
Runtime = 3.7285 seconds
	Command being timed: "/home/min/git_repos/CS598MEBProject/CNT-ILP/build/cnt -s 2 ./output/k8_n40/simC_c1_k8_n40_u3_s3_del04.input-right.cnp"
	User time (seconds): 52.96
	System time (seconds): 0.38
	Percent of CPU this job got: 1405%
	Elapsed (wall clock) time (h:mm:ss or m:ss): 0:03.79
	Average shared text size (kbytes): 0
	Average unshared data size (kbytes): 0
	Average stack size (kbytes): 0
	Average total size (kbytes): 0
	Maximum resident set size (kbytes): 221768
	Average resident set size (kbytes): 0
	Major (requiring I/O) page faults: 0
	Minor (reclaiming a frame) page faults: 93285
	Voluntary context switches: 11768
	Involuntary context switches: 7658
	Swaps: 0
	File system inputs: 0
	File system outputs: 16
	Socket messages sent: 0
	Socket messages received: 0
	Signals delivered: 0
	Page size (bytes): 4096
	Exit status: 0
